 &input
   fildyn='si.dyn', zasr='simple', flfrc='si222.fc'
 /

